c This Formular is generated by mcnf
c
c    horn? no 
c    forced? no 
c    mixed sat? no 
c    clause length = 3 
c
p cnf 20  91 
 -16 -5 -6 0
-4 15 19 0
-2 16 -5 0
10 -13 3 0
-13 -10 15 0
3 11 14 0
6 11 -2 0
-7 -4 11 0
-8 6 -12 0
9 13 -8 0
-7 19 -11 0
20 -15 -19 0
11 -1 17 0
10 6 -16 0
14 -10 -12 0
19 -2 18 0
6 -16 -17 0
-15 -11 -14 0
-2 1 -18 0
17 -16 9 0
9 16 6 0
%
0

3 87 88 69 23 31 34 20 96 31 15 28 96 69 9 11 55 88 13 78
